BAYES
400
2 2 2 2 2 2 2 2 2 2 2 2 2 2 2 2 2 2 2 2 2 2 2 2 2 2 2 2 2 2 2 2 2 2 2 2 2 2 2 2 2 2 2 2 2 2 2 2 2 2 2 2 2 2 2 2 2 2 2 2 2 2 2 2 2 2 2 2 2 2 2 2 2 2 2 2 2 2 2 2 2 2 2 2 2 2 2 2 2 2 2 2 2 2 2 2 2 2 2 2 2 2 2 2 2 2 2 2 2 2 2 2 2 2 2 2 2 2 2 2 2 2 2 2 2 2 2 2 2 2 2 2 2 2 2 2 2 2 2 2 2 2 2 2 2 2 2 2 2 2 2 2 2 2 2 2 2 2 2 2 2 2 2 2 2 2 2 2 2 2 2 2 2 2 2 2 2 2 2 2 2 2 2 2 2 2 2 2 2 2 2 2 2 2 2 2 2 2 2 2 2 2 2 2 2 2 2 2 2 2 2 2 2 2 2 2 2 2 2 2 2 2 2 2 2 2 2 2 2 2 2 2 2 2 2 2 2 2 2 2 2 2 2 2 2 2 2 2 2 2 2 2 2 2 2 2 2 2 2 2 2 2 2 2 2 2 2 2 2 2 2 2 2 2 2 2 2 2 2 2 2 2 2 2 2 2 2 2 2 2 2 2 2 2 2 2 2 2 2 2 2 2 2 2 2 2 2 2 2 2 2 2 2 2 2 2 2 2 2 2 2 2 2 2 2 2 2 2 2 2 2 2 2 2 2 2 2 2 2 2 2 2 2 2 2 2 2 2 2 2 2 2 2 2 2 2 2 2 2 2 2 2 2 2 2 2 2 2 2 2 2 2 2 2 2 2 2 2 2 2 2 2 2 2 2 2 2 2 2 2 2 2 2 2 2 2 2 2 2 2
400
1 0
2 0 1
2 1 2
2 2 3
2 3 4
2 4 5
2 5 6
2 6 7
2 7 8
2 8 9
2 9 10
2 10 11
2 11 12
2 12 13
2 13 14
2 14 15
2 15 16
2 16 17
2 17 18
2 18 19
2 0 20
3 1 20 21
3 2 21 22
3 3 22 23
3 4 23 24
3 5 24 25
3 6 25 26
3 7 26 27
3 8 27 28
3 9 28 29
3 10 29 30
3 11 30 31
3 12 31 32
3 13 32 33
3 14 33 34
3 15 34 35
3 16 35 36
3 17 36 37
3 18 37 38
3 19 38 39
2 20 40
3 21 40 41
3 22 41 42
3 23 42 43
3 24 43 44
3 25 44 45
3 26 45 46
3 27 46 47
3 28 47 48
3 29 48 49
3 30 49 50
3 31 50 51
3 32 51 52
3 33 52 53
3 34 53 54
3 35 54 55
3 36 55 56
3 37 56 57
3 38 57 58
3 39 58 59
2 40 60
3 41 60 61
3 42 61 62
3 43 62 63
3 44 63 64
3 45 64 65
3 46 65 66
3 47 66 67
3 48 67 68
3 49 68 69
3 50 69 70
3 51 70 71
3 52 71 72
3 53 72 73
3 54 73 74
3 55 74 75
3 56 75 76
3 57 76 77
3 58 77 78
3 59 78 79
2 60 80
3 61 80 81
3 62 81 82
3 63 82 83
3 64 83 84
3 65 84 85
3 66 85 86
3 67 86 87
3 68 87 88
3 69 88 89
3 70 89 90
3 71 90 91
3 72 91 92
3 73 92 93
3 74 93 94
3 75 94 95
3 76 95 96
3 77 96 97
3 78 97 98
3 79 98 99
2 80 100
3 81 100 101
3 82 101 102
3 83 102 103
3 84 103 104
3 85 104 105
3 86 105 106
3 87 106 107
3 88 107 108
3 89 108 109
3 90 109 110
3 91 110 111
3 92 111 112
3 93 112 113
3 94 113 114
3 95 114 115
3 96 115 116
3 97 116 117
3 98 117 118
3 99 118 119
2 100 120
3 101 120 121
3 102 121 122
3 103 122 123
3 104 123 124
3 105 124 125
3 106 125 126
3 107 126 127
3 108 127 128
3 109 128 129
3 110 129 130
3 111 130 131
3 112 131 132
3 113 132 133
3 114 133 134
3 115 134 135
3 116 135 136
3 117 136 137
3 118 137 138
3 119 138 139
2 120 140
3 121 140 141
3 122 141 142
3 123 142 143
3 124 143 144
3 125 144 145
3 126 145 146
3 127 146 147
3 128 147 148
3 129 148 149
3 130 149 150
3 131 150 151
3 132 151 152
3 133 152 153
3 134 153 154
3 135 154 155
3 136 155 156
3 137 156 157
3 138 157 158
3 139 158 159
2 140 160
3 141 160 161
3 142 161 162
3 143 162 163
3 144 163 164
3 145 164 165
3 146 165 166
3 147 166 167
3 148 167 168
3 149 168 169
3 150 169 170
3 151 170 171
3 152 171 172
3 153 172 173
3 154 173 174
3 155 174 175
3 156 175 176
3 157 176 177
3 158 177 178
3 159 178 179
2 160 180
3 161 180 181
3 162 181 182
3 163 182 183
3 164 183 184
3 165 184 185
3 166 185 186
3 167 186 187
3 168 187 188
3 169 188 189
3 170 189 190
3 171 190 191
3 172 191 192
3 173 192 193
3 174 193 194
3 175 194 195
3 176 195 196
3 177 196 197
3 178 197 198
3 179 198 199
2 180 200
3 181 200 201
3 182 201 202
3 183 202 203
3 184 203 204
3 185 204 205
3 186 205 206
3 187 206 207
3 188 207 208
3 189 208 209
3 190 209 210
3 191 210 211
3 192 211 212
3 193 212 213
3 194 213 214
3 195 214 215
3 196 215 216
3 197 216 217
3 198 217 218
3 199 218 219
2 200 220
3 201 220 221
3 202 221 222
3 203 222 223
3 204 223 224
3 205 224 225
3 206 225 226
3 207 226 227
3 208 227 228
3 209 228 229
3 210 229 230
3 211 230 231
3 212 231 232
3 213 232 233
3 214 233 234
3 215 234 235
3 216 235 236
3 217 236 237
3 218 237 238
3 219 238 239
2 220 240
3 221 240 241
3 222 241 242
3 223 242 243
3 224 243 244
3 225 244 245
3 226 245 246
3 227 246 247
3 228 247 248
3 229 248 249
3 230 249 250
3 231 250 251
3 232 251 252
3 233 252 253
3 234 253 254
3 235 254 255
3 236 255 256
3 237 256 257
3 238 257 258
3 239 258 259
2 240 260
3 241 260 261
3 242 261 262
3 243 262 263
3 244 263 264
3 245 264 265
3 246 265 266
3 247 266 267
3 248 267 268
3 249 268 269
3 250 269 270
3 251 270 271
3 252 271 272
3 253 272 273
3 254 273 274
3 255 274 275
3 256 275 276
3 257 276 277
3 258 277 278
3 259 278 279
2 260 280
3 261 280 281
3 262 281 282
3 263 282 283
3 264 283 284
3 265 284 285
3 266 285 286
3 267 286 287
3 268 287 288
3 269 288 289
3 270 289 290
3 271 290 291
3 272 291 292
3 273 292 293
3 274 293 294
3 275 294 295
3 276 295 296
3 277 296 297
3 278 297 298
3 279 298 299
2 280 300
3 281 300 301
3 282 301 302
3 283 302 303
3 284 303 304
3 285 304 305
3 286 305 306
3 287 306 307
3 288 307 308
3 289 308 309
3 290 309 310
3 291 310 311
3 292 311 312
3 293 312 313
3 294 313 314
3 295 314 315
3 296 315 316
3 297 316 317
3 298 317 318
3 299 318 319
2 300 320
3 301 320 321
3 302 321 322
3 303 322 323
3 304 323 324
3 305 324 325
3 306 325 326
3 307 326 327
3 308 327 328
3 309 328 329
3 310 329 330
3 311 330 331
3 312 331 332
3 313 332 333
3 314 333 334
3 315 334 335
3 316 335 336
3 317 336 337
3 318 337 338
3 319 338 339
2 320 340
3 321 340 341
3 322 341 342
3 323 342 343
3 324 343 344
3 325 344 345
3 326 345 346
3 327 346 347
3 328 347 348
3 329 348 349
3 330 349 350
3 331 350 351
3 332 351 352
3 333 352 353
3 334 353 354
3 335 354 355
3 336 355 356
3 337 356 357
3 338 357 358
3 339 358 359
2 340 360
3 341 360 361
3 342 361 362
3 343 362 363
3 344 363 364
3 345 364 365
3 346 365 366
3 347 366 367
3 348 367 368
3 349 368 369
3 350 369 370
3 351 370 371
3 352 371 372
3 353 372 373
3 354 373 374
3 355 374 375
3 356 375 376
3 357 376 377
3 358 377 378
3 359 378 379
2 360 380
3 361 380 381
3 362 381 382
3 363 382 383
3 364 383 384
3 365 384 385
3 366 385 386
3 367 386 387
3 368 387 388
3 369 388 389
3 370 389 390
3 371 390 391
3 372 391 392
3 373 392 393
3 374 393 394
3 375 394 395
3 376 395 396
3 377 396 397
3 378 397 398
3 379 398 399

2
0.383787 0.616213
4
1.0 0.0 0.0 1.0
4
0.0 1.0 1.0 0.0
4
1.0 0.0 0.0 1.0
4
0.0 1.0 1.0 0.0
4
0.216699 0.783301 0.42989 0.57011
4
1.0 0.0 0.0 1.0
4
1.0 0.0 0.0 1.0
4
0.0 1.0 1.0 0.0
4
0.0 1.0 1.0 0.0
4
0.353463 0.646537 0.209744 0.790256
4
0.0 1.0 1.0 0.0
4
0.512398 0.487602 0.145662 0.854338
4
1.0 0.0 0.0 1.0
4
1.0 0.0 0.0 1.0
4
1.0 0.0 0.0 1.0
4
0.101346 0.898654 0.150239 0.849761
4
1.0 0.0 0.0 1.0
4
1.0 0.0 0.0 1.0
4
0.0 1.0 1.0 0.0
4
0.657957 0.342043 0.331706 0.668294
8
0.940999 0.0590006 0.912235 0.0877649 0.14792 0.85208 0.483583 0.516417
8
0.501382 0.498618 0.693327 0.306673 0.971447 0.0285527 0.709403 0.290597
8
0.0 1.0 0.0 1.0 0.0 1.0 1.0 0.0
8
1.0 0.0 0.0 1.0 0.0 1.0 1.0 0.0
8
0.0 1.0 1.0 0.0 0.0 1.0 1.0 0.0
8
0.0 1.0 1.0 0.0 0.0 1.0 1.0 0.0
8
0.0 1.0 1.0 0.0 0.0 1.0 0.0 1.0
8
0.915153 0.0848474 0.906508 0.0934917 0.884374 0.115626 0.624556 0.375444
8
0.0 1.0 1.0 0.0 1.0 0.0 1.0 0.0
8
1.0 0.0 0.0 1.0 1.0 0.0 1.0 0.0
8
1.0 0.0 0.0 1.0 1.0 0.0 1.0 0.0
8
0.299145 0.700855 0.332334 0.667666 0.937043 0.0629573 0.564995 0.435005
8
0.0 1.0 0.0 1.0 0.0 1.0 1.0 0.0
8
0.181621 0.818379 0.808906 0.191094 0.518474 0.481526 0.601548 0.398452
8
1.0 0.0 0.0 1.0 0.0 1.0 1.0 0.0
8
0.16851 0.83149 0.644959 0.355041 0.0172517 0.982748 0.121857 0.878143
8
0.528606 0.471394 0.534951 0.465049 0.708927 0.291073 0.530267 0.469733
8
0.0 1.0 1.0 0.0 1.0 0.0 0.0 1.0
8
0.0 1.0 1.0 0.0 1.0 0.0 0.0 1.0
4
0.0 1.0 1.0 0.0
8
0.165729 0.834271 0.785564 0.214436 0.531235 0.468765 0.342854 0.657146
8
0.17599 0.82401 0.563569 0.436431 0.556452 0.443548 0.980884 0.0191164
8
1.0 0.0 0.0 1.0 0.0 1.0 1.0 0.0
8
1.0 0.0 0.0 1.0 0.0 1.0 1.0 0.0
8
1.0 0.0 0.0 1.0 1.0 0.0 0.0 1.0
8
0.0 1.0 0.0 1.0 1.0 0.0 0.0 1.0
8
0.0 1.0 1.0 0.0 0.0 1.0 1.0 0.0
8
1.0 0.0 1.0 0.0 1.0 0.0 0.0 1.0
8
1.0 0.0 0.0 1.0 1.0 0.0 0.0 1.0
8
0.0 1.0 0.0 1.0 0.0 1.0 1.0 0.0
8
0.0 1.0 1.0 0.0 0.0 1.0 0.0 1.0
8
0.0 1.0 0.0 1.0 1.0 0.0 0.0 1.0
8
0.0 1.0 0.0 1.0 0.0 1.0 1.0 0.0
8
1.0 0.0 1.0 0.0 0.0 1.0 0.0 1.0
8
1.0 0.0 0.0 1.0 1.0 0.0 1.0 0.0
8
0.0 1.0 0.0 1.0 1.0 0.0 1.0 0.0
8
0.0 1.0 1.0 0.0 1.0 0.0 1.0 0.0
8
0.286645 0.713355 0.447343 0.552657 0.961864 0.0381362 0.328271 0.671729
8
1.0 0.0 1.0 0.0 0.0 1.0 0.0 1.0
4
0.0 1.0 1.0 0.0
8
0.600496 0.399504 0.288538 0.711462 0.818415 0.181585 0.134028 0.865972
8
1.0 0.0 0.0 1.0 1.0 0.0 1.0 0.0
8
0.0 1.0 0.0 1.0 1.0 0.0 1.0 0.0
8
0.519341 0.480659 0.854939 0.145061 0.0690071 0.930993 0.472898 0.527102
8
0.0 1.0 0.0 1.0 1.0 0.0 0.0 1.0
8
0.546405 0.453595 0.698429 0.301571 0.863629 0.136371 0.861545 0.138455
8
1.0 0.0 1.0 0.0 0.0 1.0 0.0 1.0
8
1.0 0.0 1.0 0.0 0.0 1.0 0.0 1.0
8
0.0 1.0 0.0 1.0 1.0 0.0 1.0 0.0
8
0.0 1.0 1.0 0.0 1.0 0.0 0.0 1.0
8
0.0 1.0 0.0 1.0 0.0 1.0 1.0 0.0
8
1.0 0.0 0.0 1.0 1.0 0.0 0.0 1.0
8
1.0 0.0 1.0 0.0 1.0 0.0 0.0 1.0
8
1.0 0.0 1.0 0.0 1.0 0.0 0.0 1.0
8
1.0 0.0 1.0 0.0 1.0 0.0 0.0 1.0
8
1.0 0.0 1.0 0.0 1.0 0.0 0.0 1.0
8
0.41674 0.58326 0.408256 0.591744 0.591934 0.408066 0.316187 0.683813
8
0.0 1.0 1.0 0.0 0.0 1.0 1.0 0.0
8
1.0 0.0 0.0 1.0 0.0 1.0 1.0 0.0
4
0.0 1.0 1.0 0.0
8
0.118543 0.881457 0.0479277 0.952072 0.430928 0.569072 0.712952 0.287048
8
0.697005 0.302995 0.72124 0.27876 0.933242 0.0667585 0.396149 0.603851
8
0.699824 0.300176 0.383298 0.616702 0.552428 0.447572 0.661701 0.338299
8
0.960684 0.0393157 0.253635 0.746365 0.116225 0.883775 0.408812 0.591188
8
1.0 0.0 0.0 1.0 1.0 0.0 0.0 1.0
8
0.0 1.0 1.0 0.0 1.0 0.0 0.0 1.0
8
0.301505 0.698495 0.0277682 0.972232 0.0388677 0.961132 0.732433 0.267567
8
1.0 0.0 1.0 0.0 0.0 1.0 1.0 0.0
8
0.0 1.0 0.0 1.0 0.0 1.0 1.0 0.0
8
0.476326 0.523674 0.125149 0.874851 0.361947 0.638053 0.891225 0.108775
8
1.0 0.0 0.0 1.0 0.0 1.0 1.0 0.0
8
1.0 0.0 0.0 1.0 1.0 0.0 0.0 1.0
8
0.522233 0.477767 0.767481 0.232519 0.633733 0.366267 0.262953 0.737047
8
0.0 1.0 1.0 0.0 1.0 0.0 0.0 1.0
8
1.0 0.0 0.0 1.0 0.0 1.0 1.0 0.0
8
1.0 0.0 0.0 1.0 1.0 0.0 1.0 0.0
8
1.0 0.0 0.0 1.0 1.0 0.0 1.0 0.0
8
0.0 1.0 0.0 1.0 1.0 0.0 1.0 0.0
8
1.0 0.0 0.0 1.0 0.0 1.0 1.0 0.0
4
0.0 1.0 1.0 0.0
8
0.197952 0.802048 0.67198 0.32802 0.723789 0.276211 0.362888 0.637112
8
0.821433 0.178567 0.520274 0.479726 0.129793 0.870207 0.928001 0.071999
8
0.0 1.0 0.0 1.0 0.0 1.0 1.0 0.0
8
1.0 0.0 0.0 1.0 0.0 1.0 0.0 1.0
8
1.0 0.0 1.0 0.0 0.0 1.0 0.0 1.0
8
1.0 0.0 0.0 1.0 0.0 1.0 1.0 0.0
8
0.0 1.0 1.0 0.0 1.0 0.0 0.0 1.0
8
0.0 1.0 1.0 0.0 1.0 0.0 1.0 0.0
8
1.0 0.0 0.0 1.0 0.0 1.0 0.0 1.0
8
1.0 0.0 1.0 0.0 0.0 1.0 1.0 0.0
8
0.0 1.0 0.0 1.0 1.0 0.0 1.0 0.0
8
1.0 0.0 0.0 1.0 1.0 0.0 1.0 0.0
8
0.0 1.0 0.0 1.0 0.0 1.0 1.0 0.0
8
0.0 1.0 0.0 1.0 1.0 0.0 1.0 0.0
8
0.785299 0.214701 0.727852 0.272148 0.747388 0.252612 0.427163 0.572837
8
1.0 0.0 1.0 0.0 0.0 1.0 1.0 0.0
8
0.362574 0.637426 0.953316 0.0466836 0.698212 0.301788 0.108959 0.891041
8
0.0 1.0 0.0 1.0 0.0 1.0 1.0 0.0
8
0.0 1.0 1.0 0.0 1.0 0.0 0.0 1.0
4
1.0 0.0 0.0 1.0
8
1.0 0.0 1.0 0.0 0.0 1.0 0.0 1.0
8
1.0 0.0 0.0 1.0 1.0 0.0 0.0 1.0
8
0.487092 0.512908 0.939851 0.0601488 0.675733 0.324267 0.433781 0.566219
8
1.0 0.0 0.0 1.0 0.0 1.0 0.0 1.0
8
0.0 1.0 0.0 1.0 1.0 0.0 1.0 0.0
8
1.0 0.0 1.0 0.0 1.0 0.0 0.0 1.0
8
1.0 0.0 1.0 0.0 1.0 0.0 0.0 1.0
8
0.0 1.0 1.0 0.0 0.0 1.0 1.0 0.0
8
0.772073 0.227927 0.452346 0.547654 0.51051 0.48949 0.205854 0.794146
8
0.13956 0.86044 0.337847 0.662153 0.166156 0.833844 0.145108 0.854892
8
1.0 0.0 0.0 1.0 1.0 0.0 0.0 1.0
8
0.306321 0.693679 0.385824 0.614176 0.564403 0.435597 0.427119 0.572881
8
0.0 1.0 1.0 0.0 1.0 0.0 1.0 0.0
8
0.587066 0.412934 0.531273 0.468727 0.281668 0.718332 0.0995611 0.900439
8
1.0 0.0 0.0 1.0 1.0 0.0 1.0 0.0
8
1.0 0.0 0.0 1.0 0.0 1.0 1.0 0.0
8
1.0 0.0 1.0 0.0 1.0 0.0 0.0 1.0
8
1.0 0.0 1.0 0.0 0.0 1.0 1.0 0.0
8
0.724663 0.275337 0.893336 0.106664 0.439678 0.560322 0.979333 0.0206669
4
1.0 0.0 0.0 1.0
8
0.0 1.0 1.0 0.0 1.0 0.0 1.0 0.0
8
0.217868 0.782132 0.351797 0.648203 0.0313714 0.968629 0.524547 0.475453
8
0.0 1.0 1.0 0.0 0.0 1.0 0.0 1.0
8
1.0 0.0 1.0 0.0 1.0 0.0 0.0 1.0
8
0.0 1.0 0.0 1.0 1.0 0.0 0.0 1.0
8
0.406558 0.593442 0.529095 0.470905 0.827683 0.172317 0.984473 0.015527
8
0.394082 0.605918 0.0936606 0.906339 0.683494 0.316506 0.0600418 0.939958
8
1.0 0.0 0.0 1.0 1.0 0.0 0.0 1.0
8
0.288611 0.711389 0.115455 0.884545 0.799838 0.200162 0.817754 0.182246
8
0.0565897 0.94341 0.035983 0.964017 0.757849 0.242151 0.115349 0.884651
8
0.276724 0.723276 0.361939 0.638061 0.048426 0.951574 0.789946 0.210054
8
0.0 1.0 1.0 0.0 0.0 1.0 0.0 1.0
8
0.0 1.0 0.0 1.0 1.0 0.0 1.0 0.0
8
0.0 1.0 0.0 1.0 1.0 0.0 1.0 0.0
8
1.0 0.0 1.0 0.0 1.0 0.0 0.0 1.0
8
0.49297 0.50703 0.115374 0.884626 0.906578 0.093422 0.250819 0.749181
8
0.0 1.0 1.0 0.0 0.0 1.0 0.0 1.0
8
0.0 1.0 0.0 1.0 1.0 0.0 0.0 1.0
8
0.0 1.0 1.0 0.0 0.0 1.0 1.0 0.0
4
1.0 0.0 0.0 1.0
8
0.68446 0.31554 0.25459 0.74541 0.577374 0.422626 0.255775 0.744225
8
1.0 0.0 1.0 0.0 0.0 1.0 0.0 1.0
8
0.0 1.0 0.0 1.0 1.0 0.0 1.0 0.0
8
0.0 1.0 1.0 0.0 0.0 1.0 1.0 0.0
8
1.0 0.0 0.0 1.0 0.0 1.0 1.0 0.0
8
1.0 0.0 0.0 1.0 1.0 0.0 1.0 0.0
8
0.523083 0.476917 0.834192 0.165808 0.0681517 0.931848 0.100457 0.899543
8
0.0 1.0 1.0 0.0 0.0 1.0 0.0 1.0
8
1.0 0.0 0.0 1.0 0.0 1.0 0.0 1.0
8
0.877577 0.122423 0.36824 0.63176 0.271207 0.728793 0.996026 0.00397415
8
0.826305 0.173695 0.890994 0.109006 0.944966 0.0550337 0.405872 0.594128
8
1.0 0.0 1.0 0.0 1.0 0.0 0.0 1.0
8
1.0 0.0 1.0 0.0 1.0 0.0 0.0 1.0
8
0.0 1.0 1.0 0.0 0.0 1.0 0.0 1.0
8
0.530253 0.469747 0.761522 0.238478 0.619802 0.380198 0.684616 0.315384
8
1.0 0.0 0.0 1.0 1.0 0.0 0.0 1.0
8
0.619159 0.380841 0.384399 0.615601 0.897429 0.102571 0.0250313 0.974969
8
0.0 1.0 0.0 1.0 1.0 0.0 0.0 1.0
8
0.0 1.0 1.0 0.0 0.0 1.0 1.0 0.0
4
0.0558558 0.944144 0.0396237 0.960376
8
0.0 1.0 1.0 0.0 0.0 1.0 0.0 1.0
8
0.0 1.0 1.0 0.0 0.0 1.0 0.0 1.0
8
0.0 1.0 1.0 0.0 1.0 0.0 0.0 1.0
8
1.0 0.0 1.0 0.0 0.0 1.0 1.0 0.0
8
0.0 1.0 1.0 0.0 0.0 1.0 0.0 1.0
8
1.0 0.0 1.0 0.0 0.0 1.0 1.0 0.0
8
1.0 0.0 0.0 1.0 0.0 1.0 0.0 1.0
8
0.611651 0.388349 0.945506 0.0544945 0.31407 0.68593 0.647114 0.352886
8
1.0 0.0 0.0 1.0 0.0 1.0 1.0 0.0
8
0.153699 0.846301 0.706453 0.293547 0.641893 0.358107 0.439195 0.560805
8
1.0 0.0 1.0 0.0 0.0 1.0 0.0 1.0
8
1.0 0.0 0.0 1.0 0.0 1.0 0.0 1.0
8
0.800138 0.199862 0.993086 0.00691353 0.533058 0.466942 0.169181 0.830819
8
0.0 1.0 1.0 0.0 0.0 1.0 0.0 1.0
8
0.0 1.0 1.0 0.0 1.0 0.0 1.0 0.0
8
1.0 0.0 1.0 0.0 0.0 1.0 0.0 1.0
8
1.0 0.0 1.0 0.0 1.0 0.0 0.0 1.0
8
0.0 1.0 0.0 1.0 1.0 0.0 0.0 1.0
8
0.592275 0.407725 0.365163 0.634837 0.157029 0.842971 0.768252 0.231748
4
0.937861 0.0621394 0.889735 0.110265
8
1.0 0.0 1.0 0.0 0.0 1.0 0.0 1.0
8
0.0 1.0 1.0 0.0 0.0 1.0 1.0 0.0
8
0.0 1.0 0.0 1.0 1.0 0.0 1.0 0.0
8
1.0 0.0 1.0 0.0 1.0 0.0 0.0 1.0
8
1.0 0.0 0.0 1.0 0.0 1.0 1.0 0.0
8
0.0 1.0 1.0 0.0 0.0 1.0 0.0 1.0
8
1.0 0.0 1.0 0.0 0.0 1.0 0.0 1.0
8
0.0 1.0 1.0 0.0 1.0 0.0 1.0 0.0
8
0.727346 0.272654 0.960088 0.0399121 0.661182 0.338818 0.753772 0.246228
8
1.0 0.0 1.0 0.0 1.0 0.0 0.0 1.0
8
0.0 1.0 1.0 0.0 1.0 0.0 0.0 1.0
8
0.0 1.0 0.0 1.0 1.0 0.0 0.0 1.0
8
0.641124 0.358876 0.7288 0.2712 0.0568674 0.943133 0.995626 0.00437422
8
1.0 0.0 0.0 1.0 1.0 0.0 0.0 1.0
8
0.882897 0.117103 0.63419 0.36581 0.723041 0.276959 0.544079 0.455921
8
0.0 1.0 1.0 0.0 0.0 1.0 1.0 0.0
8
1.0 0.0 1.0 0.0 0.0 1.0 0.0 1.0
8
0.0 1.0 0.0 1.0 0.0 1.0 1.0 0.0
8
1.0 0.0 0.0 1.0 0.0 1.0 0.0 1.0
4
0.0 1.0 1.0 0.0
8
1.0 0.0 0.0 1.0 0.0 1.0 0.0 1.0
8
0.0 1.0 1.0 0.0 1.0 0.0 0.0 1.0
8
0.112686 0.887314 0.779993 0.220007 0.902685 0.0973154 0.288173 0.711827
8
0.0 1.0 0.0 1.0 1.0 0.0 0.0 1.0
8
1.0 0.0 1.0 0.0 0.0 1.0 0.0 1.0
8
0.0 1.0 0.0 1.0 0.0 1.0 1.0 0.0
8
0.299247 0.700753 0.362422 0.637578 0.452025 0.547975 0.853277 0.146723
8
1.0 0.0 0.0 1.0 1.0 0.0 0.0 1.0
8
1.0 0.0 1.0 0.0 1.0 0.0 0.0 1.0
8
0.0 1.0 0.0 1.0 1.0 0.0 0.0 1.0
8
0.0 1.0 1.0 0.0 0.0 1.0 1.0 0.0
8
0.0 1.0 1.0 0.0 0.0 1.0 0.0 1.0
8
0.156486 0.843514 0.848331 0.151669 0.148489 0.851511 0.608511 0.391489
8
1.0 0.0 1.0 0.0 0.0 1.0 0.0 1.0
8
1.0 0.0 1.0 0.0 1.0 0.0 0.0 1.0
8
0.0 1.0 0.0 1.0 0.0 1.0 1.0 0.0
8
1.0 0.0 0.0 1.0 0.0 1.0 1.0 0.0
8
1.0 0.0 1.0 0.0 0.0 1.0 1.0 0.0
8
0.476736 0.523264 0.929578 0.0704217 0.72316 0.27684 0.625225 0.374775
4
0.0 1.0 1.0 0.0
8
0.0 1.0 1.0 0.0 1.0 0.0 0.0 1.0
8
0.0 1.0 1.0 0.0 0.0 1.0 0.0 1.0
8
0.0 1.0 0.0 1.0 0.0 1.0 1.0 0.0
8
0.0 1.0 1.0 0.0 0.0 1.0 1.0 0.0
8
1.0 0.0 0.0 1.0 0.0 1.0 0.0 1.0
8
0.0 1.0 0.0 1.0 0.0 1.0 1.0 0.0
8
1.0 0.0 1.0 0.0 0.0 1.0 0.0 1.0
8
1.0 0.0 0.0 1.0 0.0 1.0 0.0 1.0
8
0.81976 0.18024 0.50878 0.49122 0.313677 0.686323 0.587279 0.412721
8
0.0 1.0 0.0 1.0 1.0 0.0 1.0 0.0
8
0.39069 0.60931 0.0402273 0.959773 0.160014 0.839986 0.586226 0.413774
8
1.0 0.0 1.0 0.0 1.0 0.0 0.0 1.0
8
0.994881 0.00511882 0.694003 0.305997 0.35972 0.64028 0.103346 0.896654
8
0.0 1.0 1.0 0.0 0.0 1.0 0.0 1.0
8
0.546557 0.453443 0.035448 0.964552 0.0729855 0.927014 0.133837 0.866163
8
1.0 0.0 1.0 0.0 0.0 1.0 0.0 1.0
8
1.0 0.0 0.0 1.0 1.0 0.0 0.0 1.0
8
0.135233 0.864767 0.66229 0.33771 0.0202214 0.979779 0.0338246 0.966175
8
1.0 0.0 0.0 1.0 0.0 1.0 1.0 0.0
4
1.0 0.0 0.0 1.0
8
0.0 1.0 1.0 0.0 1.0 0.0 1.0 0.0
8
0.0 1.0 1.0 0.0 1.0 0.0 1.0 0.0
8
0.0 1.0 1.0 0.0 0.0 1.0 1.0 0.0
8
1.0 0.0 1.0 0.0 0.0 1.0 1.0 0.0
8
0.265438 0.734562 0.161897 0.838103 0.286833 0.713167 0.280541 0.719459
8
0.157228 0.842772 0.39899 0.60101 0.996038 0.00396186 0.427331 0.572669
8
0.0120882 0.987912 0.424231 0.575769 0.990299 0.00970059 0.787447 0.212553
8
0.0847361 0.915264 0.635791 0.364209 0.644983 0.355017 0.289642 0.710358
8
0.0478887 0.952111 0.675 0.325 0.508623 0.491377 0.165754 0.834246
8
0.0 1.0 0.0 1.0 1.0 0.0 0.0 1.0
8
0.0 1.0 0.0 1.0 0.0 1.0 1.0 0.0
8
1.0 0.0 1.0 0.0 0.0 1.0 1.0 0.0
8
1.0 0.0 0.0 1.0 1.0 0.0 1.0 0.0
8
0.429821 0.570179 0.346066 0.653934 0.550317 0.449683 0.47771 0.52229
8
0.0 1.0 0.0 1.0 1.0 0.0 0.0 1.0
8
0.397935 0.602065 0.0239409 0.976059 0.0887251 0.911275 0.919462 0.080538
8
1.0 0.0 1.0 0.0 0.0 1.0 0.0 1.0
8
1.0 0.0 1.0 0.0 0.0 1.0 1.0 0.0
8
1.0 0.0 1.0 0.0 1.0 0.0 0.0 1.0
4
0.0 1.0 1.0 0.0
8
1.0 0.0 1.0 0.0 1.0 0.0 0.0 1.0
8
1.0 0.0 1.0 0.0 0.0 1.0 1.0 0.0
8
1.0 0.0 0.0 1.0 0.0 1.0 0.0 1.0
8
1.0 0.0 0.0 1.0 0.0 1.0 1.0 0.0
8
0.0 1.0 1.0 0.0 1.0 0.0 0.0 1.0
8
0.673352 0.326648 0.999359 0.000641168 0.541606 0.458394 0.778507 0.221493
8
0.0 1.0 0.0 1.0 1.0 0.0 1.0 0.0
8
0.0 1.0 0.0 1.0 1.0 0.0 0.0 1.0
8
0.0 1.0 1.0 0.0 0.0 1.0 0.0 1.0
8
0.333753 0.666247 0.961982 0.0380179 0.39647 0.60353 0.876714 0.123286
8
0.944047 0.0559526 0.629577 0.370423 0.775277 0.224723 0.568668 0.431332
8
0.628566 0.371434 0.24202 0.75798 0.938117 0.061883 0.170173 0.829827
8
1.0 0.0 0.0 1.0 0.0 1.0 0.0 1.0
8
0.0 1.0 0.0 1.0 0.0 1.0 1.0 0.0
8
0.116685 0.883315 0.128795 0.871205 0.469597 0.530403 0.783054 0.216946
8
0.414143 0.585857 0.116807 0.883193 0.882687 0.117313 0.810613 0.189387
8
0.708152 0.291848 0.75466 0.24534 0.623097 0.376903 0.483428 0.516572
8
1.0 0.0 0.0 1.0 0.0 1.0 0.0 1.0
8
1.0 0.0 1.0 0.0 0.0 1.0 1.0 0.0
4
0.197593 0.802407 0.788397 0.211603
8
1.0 0.0 0.0 1.0 1.0 0.0 1.0 0.0
8
0.0 1.0 0.0 1.0 1.0 0.0 0.0 1.0
8
1.0 0.0 0.0 1.0 1.0 0.0 1.0 0.0
8
0.0 1.0 0.0 1.0 1.0 0.0 1.0 0.0
8
0.0 1.0 1.0 0.0 1.0 0.0 1.0 0.0
8
1.0 0.0 1.0 0.0 0.0 1.0 1.0 0.0
8
0.0 1.0 0.0 1.0 0.0 1.0 1.0 0.0
8
0.97352 0.0264804 0.74558 0.25442 0.529362 0.470638 0.957637 0.0423631
8
0.0 1.0 0.0 1.0 1.0 0.0 1.0 0.0
8
0.0 1.0 1.0 0.0 1.0 0.0 1.0 0.0
8
0.0 1.0 1.0 0.0 1.0 0.0 1.0 0.0
8
0.0 1.0 0.0 1.0 0.0 1.0 1.0 0.0
8
1.0 0.0 1.0 0.0 0.0 1.0 1.0 0.0
8
0.0 1.0 0.0 1.0 1.0 0.0 0.0 1.0
8
1.0 0.0 0.0 1.0 1.0 0.0 0.0 1.0
8
1.0 0.0 0.0 1.0 0.0 1.0 0.0 1.0
8
1.0 0.0 0.0 1.0 1.0 0.0 0.0 1.0
8
0.457413 0.542587 0.560123 0.439877 0.301902 0.698098 0.147269 0.852731
8
0.446918 0.553082 0.140295 0.859705 0.552667 0.447333 0.807933 0.192067
4
1.0 0.0 0.0 1.0
8
1.0 0.0 0.0 1.0 0.0 1.0 0.0 1.0
8
0.0 1.0 0.0 1.0 0.0 1.0 1.0 0.0
8
0.0 1.0 1.0 0.0 1.0 0.0 0.0 1.0
8
0.0 1.0 0.0 1.0 1.0 0.0 0.0 1.0
8
0.615751 0.384249 0.529082 0.470918 0.0273365 0.972664 0.585574 0.414426
8
0.167632 0.832368 0.138241 0.861759 0.783933 0.216067 0.704498 0.295502
8
1.0 0.0 0.0 1.0 0.0 1.0 0.0 1.0
8
0.0 1.0 0.0 1.0 0.0 1.0 1.0 0.0
8
0.082329 0.917671 0.0309893 0.969011 0.11051 0.88949 0.603236 0.396764
8
1.0 0.0 1.0 0.0 0.0 1.0 1.0 0.0
8
0.212434 0.787566 0.288601 0.711399 0.933294 0.0667059 0.798008 0.201992
8
1.0 0.0 1.0 0.0 0.0 1.0 0.0 1.0
8
1.0 0.0 0.0 1.0 0.0 1.0 1.0 0.0
8
0.0 1.0 0.0 1.0 1.0 0.0 0.0 1.0
8
0.0 1.0 0.0 1.0 0.0 1.0 1.0 0.0
8
0.0 1.0 1.0 0.0 0.0 1.0 0.0 1.0
8
1.0 0.0 1.0 0.0 0.0 1.0 1.0 0.0
8
1.0 0.0 1.0 0.0 0.0 1.0 1.0 0.0
8
1.0 0.0 0.0 1.0 0.0 1.0 0.0 1.0
4
0.0 1.0 1.0 0.0
8
0.0 1.0 1.0 0.0 1.0 0.0 1.0 0.0
8
0.208383 0.791617 0.375766 0.624234 0.725301 0.274699 0.132721 0.867279
8
0.0 1.0 1.0 0.0 1.0 0.0 1.0 0.0
8
0.177342 0.822658 0.586459 0.413541 0.0260918 0.973908 0.802974 0.197026
8
0.0 1.0 0.0 1.0 0.0 1.0 1.0 0.0
8
1.0 0.0 1.0 0.0 0.0 1.0 1.0 0.0
8
1.0 0.0 0.0 1.0 0.0 1.0 0.0 1.0
8
0.506867 0.493133 0.75258 0.24742 0.277229 0.722771 0.232168 0.767832
8
0.338451 0.661549 0.503563 0.496437 0.701878 0.298122 0.991085 0.00891452
8
0.0 1.0 1.0 0.0 1.0 0.0 1.0 0.0
8
0.199188 0.800812 0.828687 0.171313 0.205432 0.794568 0.0490516 0.950948
8
0.0 1.0 1.0 0.0 1.0 0.0 0.0 1.0
8
0.0 1.0 1.0 0.0 0.0 1.0 1.0 0.0
8
0.500681 0.499319 0.314284 0.685716 0.50491 0.49509 0.77791 0.22209
8
0.0 1.0 1.0 0.0 1.0 0.0 0.0 1.0
8
1.0 0.0 0.0 1.0 0.0 1.0 1.0 0.0
8
0.0 1.0 0.0 1.0 1.0 0.0 0.0 1.0
8
0.268397 0.731603 0.740106 0.259894 0.840252 0.159748 0.981388 0.0186116
8
0.0 1.0 1.0 0.0 1.0 0.0 0.0 1.0
4
0.18089 0.81911 0.354108 0.645892
8
0.0 1.0 1.0 0.0 0.0 1.0 1.0 0.0
8
1.0 0.0 1.0 0.0 1.0 0.0 0.0 1.0
8
0.6317 0.3683 0.0629439 0.937056 0.851104 0.148896 0.878975 0.121025
8
0.779795 0.220205 0.331683 0.668317 0.917262 0.082738 0.0481923 0.951808
8
0.0 1.0 1.0 0.0 0.0 1.0 0.0 1.0
8
1.0 0.0 0.0 1.0 1.0 0.0 0.0 1.0
8
1.0 0.0 1.0 0.0 0.0 1.0 1.0 0.0
8
0.0 1.0 1.0 0.0 1.0 0.0 0.0 1.0
8
1.0 0.0 0.0 1.0 1.0 0.0 0.0 1.0
8
1.0 0.0 0.0 1.0 0.0 1.0 1.0 0.0
8
0.696957 0.303043 0.291346 0.708654 0.161843 0.838157 0.70868 0.29132
8
1.0 0.0 1.0 0.0 0.0 1.0 0.0 1.0
8
0.463591 0.536409 0.371744 0.628256 0.144363 0.855637 0.321756 0.678244
8
1.0 0.0 0.0 1.0 0.0 1.0 0.0 1.0
8
0.449465 0.550535 0.286679 0.713321 0.00618253 0.993817 0.883243 0.116757
8
0.0283637 0.971636 0.096816 0.903184 0.550674 0.449326 0.967807 0.0321931
8
0.0 1.0 1.0 0.0 0.0 1.0 0.0 1.0
8
1.0 0.0 1.0 0.0 1.0 0.0 0.0 1.0
8
0.0 1.0 0.0 1.0 1.0 0.0 0.0 1.0
4
0.0 1.0 1.0 0.0
8
0.0 1.0 1.0 0.0 1.0 0.0 0.0 1.0
8
1.0 0.0 1.0 0.0 0.0 1.0 0.0 1.0
8
0.918428 0.0815716 0.053288 0.946712 0.310903 0.689097 0.338731 0.661269
8
0.0 1.0 1.0 0.0 0.0 1.0 1.0 0.0
8
1.0 0.0 1.0 0.0 0.0 1.0 0.0 1.0
8
0.0 1.0 1.0 0.0 0.0 1.0 0.0 1.0
8
0.0 1.0 0.0 1.0 1.0 0.0 1.0 0.0
8
1.0 0.0 1.0 0.0 1.0 0.0 0.0 1.0
8
0.0 1.0 1.0 0.0 0.0 1.0 0.0 1.0
8
0.384953 0.615047 0.486099 0.513901 0.78155 0.21845 0.47645 0.52355
8
1.0 0.0 0.0 1.0 0.0 1.0 1.0 0.0
8
1.0 0.0 0.0 1.0 0.0 1.0 0.0 1.0
8
0.0 1.0 0.0 1.0 1.0 0.0 0.0 1.0
8
0.107416 0.892584 0.736447 0.263553 0.0716797 0.92832 0.71093 0.28907
8
1.0 0.0 1.0 0.0 0.0 1.0 1.0 0.0
8
0.0 1.0 1.0 0.0 0.0 1.0 1.0 0.0
8
0.0422867 0.957713 0.393584 0.606416 0.59824 0.40176 0.84416 0.15584
8
1.0 0.0 1.0 0.0 0.0 1.0 1.0 0.0
8
0.896969 0.103031 0.651265 0.348735 0.273426 0.726574 0.768624 0.231376